
units metal 
dimension 3

### You need to use the same boundary setting as your data and cfg files
boundary f p p

#if cell information has xy yz xy terms in data and cfg files
box tilt large 
atom_style atomic 
atom_modify map array
# ---------- read template data file first --------------------- 
 
read_data ./initial/noequal.data
# then read the one you really want to
#cfg_anchor 
read_dump /home/jsp/noequal_compress/HEA_compress/00stress_3.cfg 2000 x y z box yes
#group_anchor 
#group grp type 1
#delete_atoms group grp 
##import your system information. Refer to the following example:

#region	box block 0 12 0 12 0 12 
#create_box	2 box # there are two types of atoms in the box
#create_atoms	1 random 140 12345 NULL ## for 350 Au atoms
#create_atoms	2 random 60 7898 NULL  ## for 150 Si atoms
#mass  1   196.9665 
#mass  2   28.0850 

# ---------- Define Interatomic Potential --------------------- 
pair_style meam/c
pair_coeff * * ./ref.lib Pd Rh Co Pt  ./Bestfitted.meam Pd Rh Co Pt
###---------------Binding Energy-------------------------------
compute peratom all pe/atom
shell cd output_cfg
thermo 1
thermo_style custom step pe 
dump 1 all custom 1 stress.cfg id type x y z c_peratom
run 0
undump 1
shell cd ..